c status 13 1469387056903
c status 8 1469387056903
c status 7 1469387056904
s td 10 7 20
b 1 8 9 1 13 7
b 2 9 2 1 13 10 4 7
b 3 16 11 1 17 15
b 4 11 12 1 17 15 10 4
b 5 1 17 15 13 10 4 7
b 6 18 5 19 17 7
b 7 5 6 19 17 10 4 7
b 8 20 3 19 15 13
b 9 3 14 19 15 13 10 4
b 10 19 17 15 13 10 4 7
1 2
2 5
5 10
10 9
10 7
5 4
9 8
4 3
7 6
